problems/VanDerWaerdenNumbers/VanDerWaerden-models/noch/O2/lingeling/model_4-k3l4n52-solution000001.solution
language Essence 1.3

letting p be
        partition({1, 2, 4, 9, 13, 14, 15, 20, 27, 28, 29, 33, 36, 46, 47},
                  {3, 7, 10, 17, 18, 19, 21, 22, 25, 30, 32, 35, 37, 41, 42, 44, 45, 48, 50},
                  {5, 6, 8, 11, 12, 16, 23, 24, 26, 31, 34, 38, 39, 40, 43, 49, 51, 52})
